========== Sans flags =============
/////// aim-100-1_6-no-1.cnf //////// 
s UNSATISFIABLE
0m5.861s
0m5.781s
0m0.032s
/////// comp1.cnf //////// 
s SATISFIABLE
0m0.013s
0m0.008s
0m0.003s
/////// comp2.cnf //////// 
TIME LIMIT EXEDEED
0m20.010s
0m19.781s
0m0.083s
/////// comp3.cnf //////// 
s SATISFIABLE
0m0.046s
0m0.041s
0m0.003s
/////// comp4.cnf //////// 
s SATISFIABLE
0m0.044s
0m0.039s
0m0.003s
/////// comp5.cnf //////// 
s SATISFIABLE
0m0.009s
0m0.005s
0m0.002s
/////// dubois20.cnf //////// 
s UNSATISFIABLE
0m0.381s
0m0.377s
0m0.002s
/////// dubois21.cnf //////// 
s UNSATISFIABLE
0m0.787s
0m0.780s
0m0.003s
/////// dubois22.cnf //////// 
s UNSATISFIABLE
0m1.511s
0m1.505s
0m0.003s
/////// hole6.cnf //////// 
s UNSATISFIABLE
0m0.013s
0m0.009s
0m0.002s
/////// prime1.cnf //////// 
s UNSATISFIABLE
0m0.080s
0m0.075s
0m0.003s
/////// prime2.cnf //////// 
s UNSATISFIABLE
0m0.025s
0m0.020s
0m0.003s
/////// prime3.cnf //////// 
s UNSATISFIABLE
0m0.152s
0m0.145s
0m0.003s
/////// prime4.cnf //////// 
s UNSATISFIABLE
0m0.026s
0m0.021s
0m0.003s
/////// prime5.cnf //////// 
s UNSATISFIABLE
0m0.350s
0m0.344s
0m0.003s
========== Avec -moms =============
 ////// aim-100-1_6-no-1.cnf /////// 
s UNSATISFIABLE
0m1.221s
0m1.214s
0m0.003s
 ////// comp1.cnf /////// 
s SATISFIABLE
0m0.011s
0m0.006s
0m0.003s
 ////// comp2.cnf /////// 
s SATISFIABLE
0m1.743s
0m1.716s
0m0.013s
 ////// comp3.cnf /////// 
s SATISFIABLE
0m0.082s
0m0.075s
0m0.003s
 ////// comp4.cnf /////// 
s SATISFIABLE
0m0.064s
0m0.057s
0m0.004s
 ////// comp5.cnf /////// 
s SATISFIABLE
0m0.010s
0m0.005s
0m0.003s
 ////// dubois20.cnf /////// 
s UNSATISFIABLE
0m1.423s
0m1.400s
0m0.010s
 ////// dubois21.cnf /////// 
s UNSATISFIABLE
0m2.653s
0m2.611s
0m0.012s
 ////// dubois22.cnf /////// 
s UNSATISFIABLE
0m5.770s
0m5.659s
0m0.039s
 ////// hole6.cnf /////// 
s UNSATISFIABLE
0m0.010s
0m0.005s
0m0.002s
 ////// prime1.cnf /////// 
s UNSATISFIABLE
0m0.118s
0m0.110s
0m0.004s
 ////// prime2.cnf /////// 
s UNSATISFIABLE
0m0.032s
0m0.027s
0m0.003s
 ////// prime3.cnf /////// 
s UNSATISFIABLE
0m0.237s
0m0.227s
0m0.005s
 ////// prime4.cnf /////// 
s UNSATISFIABLE
0m0.034s
0m0.028s
0m0.003s
 ////// prime5.cnf /////// 
s UNSATISFIABLE
0m0.585s
0m0.570s
0m0.007s
========== Avec -dlis =============
 ////// aim-100-1_6-no-1.cnf /////// 
TIME LIMIT EXEDEED
0m20.010s
0m19.889s
0m0.042s
 ////// comp1.cnf /////// 
s SATISFIABLE
0m0.022s
0m0.017s
0m0.003s
 ////// comp2.cnf /////// 
s SATISFIABLE
0m1.320s
0m1.314s
0m0.003s
 ////// comp3.cnf /////// 
s SATISFIABLE
0m0.770s
0m0.763s
0m0.004s
 ////// comp4.cnf /////// 
s SATISFIABLE
0m5.016s
0m5.007s
0m0.005s
 ////// comp5.cnf /////// 
s SATISFIABLE
0m0.014s
0m0.009s
0m0.003s
 ////// dubois20.cnf /////// 
s UNSATISFIABLE
0m1.413s
0m1.408s
0m0.003s
 ////// dubois21.cnf /////// 
s UNSATISFIABLE
0m2.925s
0m2.919s
0m0.003s
 ////// dubois22.cnf /////// 
s UNSATISFIABLE
0m6.039s
0m6.032s
0m0.004s
 ////// hole6.cnf /////// 
s UNSATISFIABLE
0m0.008s
0m0.004s
0m0.002s
 ////// prime1.cnf /////// 
s UNSATISFIABLE
0m0.388s
0m0.382s
0m0.003s
 ////// prime2.cnf /////// 
s UNSATISFIABLE
0m0.077s
0m0.073s
0m0.002s
 ////// prime3.cnf /////// 
s UNSATISFIABLE
0m0.925s
0m0.916s
0m0.005s
 ////// prime4.cnf /////// 
s UNSATISFIABLE
0m0.077s
0m0.071s
0m0.003s
 ////// prime5.cnf /////// 
s UNSATISFIABLE
0m2.349s
0m2.341s
0m0.005s
========== Avec -rand =============
 ////// aim-100-1_6-no-1.cnf /////// 
TIME LIMIT EXEDEED
0m20.010s
0m19.994s
0m0.008s
 ////// comp1.cnf /////// 
s SATISFIABLE
0m12.856s
0m12.815s
0m0.019s
 ////// comp2.cnf /////// 
TIME LIMIT EXEDEED
0m20.006s
0m19.977s
0m0.016s
 ////// comp3.cnf /////// 
TIME LIMIT EXEDEED
0m20.010s
0m19.995s
0m0.009s
 ////// comp4.cnf /////// 
TIME LIMIT EXEDEED
0m20.010s
0m19.968s
0m0.019s
 ////// comp5.cnf /////// 
s SATISFIABLE
0m0.441s
0m0.427s
0m0.008s
 ////// dubois20.cnf /////// 
s UNSATISFIABLE
0m1.823s
0m1.812s
0m0.005s
 ////// dubois21.cnf /////// 
s UNSATISFIABLE
0m3.703s
0m3.697s
0m0.003s
 ////// dubois22.cnf /////// 
s UNSATISFIABLE
0m7.439s
0m7.430s
0m0.004s
 ////// hole6.cnf /////// 
s UNSATISFIABLE
0m0.008s
0m0.004s
0m0.002s
 ////// prime1.cnf /////// 
TIME LIMIT EXEDEED
0m20.010s
0m19.995s
0m0.009s
 ////// prime2.cnf /////// 
TIME LIMIT EXEDEED
0m20.005s
0m19.992s
0m0.008s
 ////// prime3.cnf /////// 
TIME LIMIT EXEDEED
0m20.010s
0m19.960s
0m0.024s
 ////// prime4.cnf /////// 
TIME LIMIT EXEDEED
0m20.009s
0m19.998s
0m0.007s
 ////// prime5.cnf /////// 
TIME LIMIT EXEDEED
0m20.010s
0m19.997s
0m0.008s
========== Avec -wl =============
 ////// aim-100-1_6-no-1.cnf /////// 
s UNSATISFIABLE
0m2.594s
0m2.588s
0m0.003s
 ////// comp1.cnf /////// 
s SATISFIABLE
0m0.011s
0m0.006s
0m0.003s
 ////// comp2.cnf /////// 
s SATISFIABLE
0m14.457s
0m14.403s
0m0.026s
 ////// comp3.cnf /////// 
s SATISFIABLE
0m0.041s
0m0.035s
0m0.003s
 ////// comp4.cnf /////// 
s SATISFIABLE
0m0.038s
0m0.033s
0m0.003s
 ////// comp5.cnf /////// 
s SATISFIABLE
0m0.009s
0m0.005s
0m0.002s
 ////// dubois20.cnf /////// 
s UNSATISFIABLE
0m0.360s
0m0.356s
0m0.002s
 ////// dubois21.cnf /////// 
s UNSATISFIABLE
0m0.710s
0m0.705s
0m0.003s
 ////// dubois22.cnf /////// 
s UNSATISFIABLE
0m1.430s
0m1.422s
0m0.003s
 ////// hole6.cnf /////// 
s UNSATISFIABLE
0m0.010s
0m0.006s
0m0.002s
 ////// prime1.cnf /////// 
s UNSATISFIABLE
0m0.056s
0m0.051s
0m0.003s
 ////// prime2.cnf /////// 
s UNSATISFIABLE
0m0.021s
0m0.016s
0m0.003s
 ////// prime3.cnf /////// 
s UNSATISFIABLE
0m0.113s
0m0.108s
0m0.003s
 ////// prime4.cnf /////// 
s UNSATISFIABLE
0m0.021s
0m0.017s
0m0.002s
 ////// prime5.cnf /////// 
s UNSATISFIABLE
0m0.246s
0m0.241s
0m0.003s
